p cnf 154 500
c t mc
-3 1 0
-3 2 0
-1 -2 3 0
-4 5 0
4 5 0
10 -8 0
10 9 0
8 -9 -10 0
-11 -7 0
-11 10 0
7 -10 11 0
12 -6 0
12 -11 0
6 11 -12 0
-5 12 -13 0
5 -12 -13 0
-5 -12 13 0
5 12 13 0
-7 14 -15 0
7 -14 -15 0
-7 -14 15 0
7 14 15 0
16 -14 0
16 15 0
14 -15 -16 0
16 9 -17 0
-16 -9 -17 0
16 -9 17 0
-16 9 17 0
13 17 -18 0
-13 -17 -18 0
13 -17 18 0
-13 17 18 0
19 2 -20 0
-19 -2 -20 0
19 -2 20 0
-19 2 20 0
23 21 0
23 -22 0
-21 22 -23 0
-24 20 0
-24 -23 0
-20 23 24 0
18 -24 -25 0
-18 24 -25 0
18 24 25 0
-18 -24 25 0
26 -3 0
26 -25 0
3 25 -26 0
-28 27 0
-28 -11 0
-27 11 28 0
29 -8 0
29 -28 0
8 28 -29 0
21 2 -30 0
-21 -2 -30 0
21 -2 30 0
-21 2 30 0
31 -29 0
31 -30 0
29 30 -31 0
32 27 0
32 11 0
-27 -11 -32 0
33 31 0
33 32 0
-31 -32 -33 0
34 -26 0
34 33 0
26 -33 -34 0
38 -36 0
38 -37 0
36 37 -38 0
-39 -35 0
-39 38 0
35 -38 39 0
-13 39 -40 0
13 -39 -40 0
-13 -39 40 0
13 39 40 0
-41 37 0
-41 36 0
-37 -36 41 0
-42 10 0
-42 35 0
-10 -35 42 0
41 -42 -43 0
-41 42 -43 0
41 42 43 0
-41 -42 43 0
-44 -40 0
-44 43 0
40 -43 44 0
-45 24 0
-45 -13 0
-24 13 45 0
-45 1 -46 0
45 -1 -46 0
-45 -1 46 0
45 1 46 0
-47 20 0
-47 -1 0
-20 1 47 0
48 -46 0
48 47 0
46 -47 -48 0
-49 -2 0
-49 -3 0
2 3 49 0
-41 -14 -50 0
41 14 -50 0
-41 14 50 0
41 -14 50 0
51 -6 0
51 50 0
6 -50 -51 0
49 51 -52 0
-49 -51 -52 0
49 -51 52 0
-49 51 52 0
-48 -52 -53 0
48 52 -53 0
-48 52 53 0
48 -52 53 0
-55 54 0
-55 -22 0
-54 22 55 0
28 55 -56 0
-28 -55 -56 0
28 -55 56 0
-28 55 56 0
57 5 0
57 56 0
-5 -56 -57 0
-59 58 0
-59 -24 0
-58 24 59 0
21 59 -60 0
-21 -59 -60 0
21 -59 60 0
-21 59 60 0
57 -60 -61 0
-57 60 -61 0
57 60 61 0
-57 -60 61 0
-62 -53 0
-62 61 0
53 -61 62 0
63 -44 0
63 -62 0
44 62 -63 0
64 -37 0
64 -29 0
37 29 -64 0
29 45 -65 0
-29 -45 -65 0
29 -45 65 0
-29 45 65 0
64 65 -66 0
-64 -65 -66 0
64 -65 66 0
-64 65 66 0
-68 67 0
-68 -50 0
-67 50 68 0
69 66 0
69 -68 0
-66 68 -69 0
-70 -63 0
-70 -69 0
63 69 70 0
71 34 0
71 70 0
-34 -70 -71 0
72 -45 0
72 -12 0
45 12 -72 0
74 21 0
74 -73 0
-21 73 -74 0
-75 74 0
-75 30 0
-74 -30 75 0
-72 75 -76 0
72 -75 -76 0
-72 -75 76 0
72 75 76 0
15 36 -77 0
-15 -36 -77 0
15 -36 77 0
-15 36 77 0
78 77 0
78 32 0
-77 -32 -78 0
-80 6 0
-80 -41 0
-6 41 80 0
81 79 0
81 -80 0
-79 80 -81 0
-3 81 -82 0
3 -81 -82 0
-3 -81 82 0
3 81 82 0
79 -37 -83 0
-79 37 -83 0
79 37 83 0
-79 -37 83 0
-1 83 -84 0
1 -83 -84 0
-1 -83 84 0
1 83 84 0
85 -84 0
85 -56 0
84 56 -85 0
-86 -82 0
-86 85 0
82 -85 86 0
-87 55 0
-87 39 0
-55 -39 87 0
-88 -86 0
-88 87 0
86 -87 88 0
-78 -88 -89 0
78 88 -89 0
-78 88 89 0
78 -88 89 0
-92 -90 0
-92 -91 0
90 91 92 0
-93 20 0
-93 -91 0
-20 91 93 0
94 -92 0
94 -93 0
92 93 -94 0
-95 -5 0
-95 -22 0
5 22 95 0
-95 -11 -96 0
95 11 -96 0
-95 11 96 0
95 -11 96 0
32 2 -97 0
-32 -2 -97 0
32 -2 97 0
-32 2 97 0
98 -96 0
98 -97 0
96 97 -98 0
-99 -94 0
-99 98 0
94 -98 99 0
100 89 0
100 99 0
-89 -99 -100 0
-101 76 0
-101 -100 0
-76 100 101 0
-3 -10 -102 0
3 10 -102 0
-3 10 102 0
3 -10 102 0
-102 35 -103 0
102 -35 -103 0
-102 -35 103 0
102 35 103 0
-104 -36 0
-104 16 0
36 -16 104 0
105 -103 0
105 -104 0
103 104 -105 0
106 -101 0
106 105 0
101 -105 -106 0
-71 -106 -107 0
71 106 -107 0
-71 106 107 0
71 -106 107 0
-108 50 0
-108 -50 0
109 58 0
109 -80 0
-58 80 -109 0
110 108 0
110 -109 0
-108 109 -110 0
-111 74 0
-111 55 0
-74 -55 111 0
113 -41 0
113 -112 0
41 112 -113 0
-114 28 0
-114 113 0
-28 -113 114 0
95 -114 -115 0
-95 114 -115 0
95 114 115 0
-95 -114 115 0
115 -56 -116 0
-115 56 -116 0
115 56 116 0
-115 -56 116 0
-111 116 -117 0
111 -116 -117 0
-111 -116 117 0
111 116 117 0
-118 -58 0
-118 28 0
58 -28 118 0
37 -118 -119 0
-37 118 -119 0
37 118 119 0
-37 -118 119 0
120 -117 0
120 -119 0
117 119 -120 0
121 110 0
121 -120 0
-110 120 -121 0
-122 -79 0
-122 -55 0
79 55 122 0
121 -122 -123 0
-121 122 -123 0
121 122 123 0
-121 -122 123 0
-124 35 0
-124 2 0
-35 -2 124 0
125 84 0
125 118 0
-84 -118 -125 0
-125 3 -126 0
125 -3 -126 0
-125 -3 126 0
125 3 126 0
126 56 -127 0
-126 -56 -127 0
126 -56 127 0
-126 56 127 0
-128 65 0
-128 16 0
-65 -16 128 0
-127 -128 -129 0
127 128 -129 0
-127 128 129 0
127 -128 129 0
124 129 -130 0
-124 -129 -130 0
124 -129 130 0
-124 129 130 0
14 -35 -131 0
-14 35 -131 0
14 35 131 0
-14 -35 131 0
130 131 -132 0
-130 -131 -132 0
130 -131 132 0
-130 131 132 0
-123 132 -133 0
123 -132 -133 0
-123 -132 133 0
123 132 133 0
-134 -73 0
-134 -2 0
73 2 134 0
-135 -30 0
-135 95 0
30 -95 135 0
18 -136 0
-18 -136 0
137 -23 0
137 59 0
23 -59 -137 0
-136 -137 -138 0
136 137 -138 0
-136 137 138 0
136 -137 138 0
-139 -135 0
-139 -138 0
135 138 139 0
-140 95 0
-140 -22 0
-95 22 140 0
141 -16 0
141 -140 0
16 140 -141 0
142 139 0
142 141 0
-139 -141 -142 0
143 -134 0
143 142 0
134 -142 -143 0
-144 58 0
-144 -83 0
-58 83 144 0
-145 91 0
-145 -5 0
-91 5 145 0
146 144 0
146 145 0
-144 -145 -146 0
-37 -8 -147 0
37 8 -147 0
-37 8 147 0
37 -8 147 0
148 147 0
148 9 0
-147 -9 -148 0
149 -146 0
149 -148 0
146 148 -149 0
-150 79 0
-150 -73 0
-79 73 150 0
151 -149 0
151 -150 0
149 150 -151 0
-143 151 -152 0
143 -151 -152 0
-143 -151 152 0
143 151 152 0
153 133 0
153 -152 0
-133 152 -153 0
-154 107 0
-154 153 0
-107 -153 154 0
-36 -134 -24 -19 -122 57 0
-68 78 -72 148 -15 0
-81 138 -141 -142 -108 -128 -4 0
111 86 116 73 0
-45 -16 83 19 11 0
-127 97 -94 136 64 12 -139 -55 56 0
-41 23 125 -123 -133 0
43 -107 106 50 -128 19 115 55 0
-36 -9 -58 34 -143 59 85 14 0
-90 -146 -44 -117 0
2 -151 83 -63 -77 -105 154 26 0
89 65 -32 11 151 86 21 10 -63 152 0
-125 88 -15 53 139 -64 -130 -103 31 60 0
136 49 57 -2 -115 -124 0
-148 145 -82 106 79 -150 -113 -36 29 -40 0
-148 153 -149 -83 -52 -14 0
116 12 3 86 56 140 60 -138 0
125 -108 -146 0
24 102 131 -71 -68 -77 -149 -76 -15 0
134 -88 -112 1 -71 -102 104 70 131 -32 0
-76 -6 103 -46 -5 63 73 0
125 -147 50 0
-83 -108 71 -85 -130 -11 36 31 0
-89 128 52 24 0
-88 132 20 27 104 -47 103 -145 75 94 0
-53 104 -73 -94 0
-28 -49 -1 -124 69 -137 0
16 -154 105 8 -74 0
-83 -118 92 0
-22 143 148 108 -10 34 -106 21 90 0
112 -32 4 14 -19 24 0
113 -32 -129 -11 64 130 0
-62 -73 -71 11 -6 0
-101 -58 135 1 112 -122 0
-40 54 125 138 -135 -118 -66 0
129 63 -151 -19 0
-32 63 91 -9 0
-29 143 -68 -98 -21 153 -92 44 91 48 0
-62 121 -11 -3 -22 56 0
-136 -17 145 -35 97 20 52 144 -125 0
-39 -113 -83 -116 -7 0
-126 -98 -106 92 82 23 0
-129 -34 92 122 0
10 -131 -38 0
-151 63 84 89 -50 3 -43 120 -130 -143 0
-21 -98 121 -12 0
-119 37 148 90 -45 -72 -13 -35 -147 0
-92 82 -85 146 73 -154 0
-94 -123 -26 92 140 -106 50 0
129 32 -108 -142 105 0
-99 -127 -21 -145 -100 -137 -115 -17 0
-52 -70 139 147 130 47 -95 0
-133 -146 -141 -135 145 45 0
67 -66 127 -12 136 31 34 122 0
86 74 -148 -115 -7 -44 53 -143 -117 0
-7 116 -25 -87 78 85 0
-70 -95 51 -108 45 -30 36 96 61 0
34 -57 109 -131 144 0
-25 -129 79 6 -108 -76 0
-35 -98 38 -142 30 36 46 0
140 -131 -141 0
-71 -115 72 46 118 141 0
-110 -149 -86 0
127 -72 -153 -128 0
9 -34 36 -83 -64 -121 0
154 0
